c random clauses
p cnf 12 32
-12 -11 -10 -7 -6 -5 -1 2 0
-12 -11 -9 -8 -4 -3 2 7 0
-12 -11 -9 -6 -4 1 2 3 0
-12 -11 -8 -6 -3 -1 5 7 0
-12 -11 -6 -3 1 4 8 9 0
-12 -11 -4 1 2 6 7 8 0
-12 -10 -8 -3 -1 2 4 7 0
-12 -8 -6 2 3 4 9 10 0
-12 -8 -5 -3 6 7 10 11 0
-12 -6 -5 -1 3 4 9 11 0
-11 -10 -9 -7 -6 -4 2 5 0
-11 -10 -9 -1 2 5 7 12 0
-11 -10 -9 2 3 6 7 12 0
-11 -10 -6 -4 -2 3 8 9 0
-11 -10 -3 1 2 5 6 7 0
-11 -9 -6 1 2 3 5 12 0
-11 -9 -4 -3 -2 -1 5 8 0
-10 -9 -8 -4 -2 1 6 11 0
-10 -9 -5 1 3 4 8 12 0
-10 -8 -6 -3 2 5 11 12 0
-9 -8 -7 -6 -5 -1 4 12 0
-9 -8 -5 -2 1 4 10 12 0
-9 -8 -4 -1 3 10 11 12 0
-9 -7 -6 -4 1 2 5 12 0
-8 -6 -2 3 4 5 11 12 0
-7 -6 -4 -3 -2 8 11 12 0
-7 -6 -4 -2 1 5 9 12 0
-7 -6 -4 -1 2 3 8 9 0
-7 -2 -1 3 4 5 6 10 0
-6 -4 -3 -2 1 9 11 12 0
-6 1 3 7 8 9 10 11 0
-3 -2 5 7 8 9 10 12 0
